
  32    4
  10   10   10   10

   0   0   0   0   0   1 2 
   6   1   1   1   0   2 6 3 
   7   3   0   5   1   1 4 
  10   9   0   5   5   2 10 5 
   3   0   5   5   3   2 11 7 
   1   7   0   2   2   2 10 7 
   6   2   4   0   7   1 8 
  10   0   5   5   2   2 19 9 
   6   0   6   4   3   2 15 12 
   6   5   4   2   0   2 15 13 
   3   5   2   0   1   2 19 13 
   8   8   3   2   0   1 13 
   6   2   4   6   0   1 14 
   3   2   2   0   5   2 21 16 
   3   5   3   0   4   2 21 17 
   4   0   1   7   3   1 17 
   7   0   6   5   3   1 18 
   6   0   3   2   3   2 24 20 
   7   3   7   0   5   2 24 20 
   9   4   3   0   5   1 22 
   8   1   0   3   4   1 22 
   1   9   0   3   4   1 23 
   6   3   6   0   5   2 27 25 
   7   0   6   4   4   2 27 26 
   7   4   4   0   7   1 26 
   9   5   6   2   0   1 28 
   5   3   0   7   6   1 29 
   4   1   0   3   6   1 30 
   8   1   0   6   2   1 30 
   5   0   6   5   5   1 31 
   8   5   1   0   5   1 32
   0   0   0   0   0   0 
